NAME           C:\Bruker\Hvattum\knapsack\Problems\class4\100-10-13.mps
ROWS
 N  OBJ
 L  CONSTR1
 L  CONSTR2
 L  CONSTR3
 L  CONSTR4
 L  CONSTR5
 L  CONSTR6
 L  CONSTR7
 L  CONSTR8
 L  CONSTR9
 L  CONSTR10
COLUMNS
    INT0001   'MARKER'  'INTORG'
    X1        OBJ       853
    X1        CONSTR1   131
    X1        CONSTR2   538
    X1        CONSTR3   704
    X1        CONSTR4   53
    X1        CONSTR5   64
    X1        CONSTR6   440
    X1        CONSTR7   864
    X1        CONSTR8   204
    X1        CONSTR9   647
    X1        CONSTR10  273
    X2        OBJ       558
    X2        CONSTR1   374
    X2        CONSTR2   320
    X2        CONSTR3   776
    X2        CONSTR4   26
    X2        CONSTR5   141
    X2        CONSTR6   502
    X2        CONSTR7   195
    X2        CONSTR8   503
    X2        CONSTR9   682
    X2        CONSTR10  245
    X3        OBJ       747
    X3        CONSTR1   804
    X3        CONSTR2   879
    X3        CONSTR3   448
    X3        CONSTR4   302
    X3        CONSTR5   216
    X3        CONSTR6   757
    X3        CONSTR7   79
    X3        CONSTR8   93
    X3        CONSTR9   20
    X3        CONSTR10  372
    X4        OBJ       426
    X4        CONSTR1   27
    X4        CONSTR2   160
    X4        CONSTR3   848
    X4        CONSTR4   219
    X4        CONSTR5   455
    X4        CONSTR6   152
    X4        CONSTR7   231
    X4        CONSTR8   261
    X4        CONSTR9   437
    X4        CONSTR10  468
    X5        OBJ       537
    X5        CONSTR1   719
    X5        CONSTR2   488
    X5        CONSTR3   544
    X5        CONSTR4   212
    X5        CONSTR5   536
    X5        CONSTR6   223
    X5        CONSTR7   82
    X5        CONSTR8   905
    X5        CONSTR9   275
    X5        CONSTR10  366
    X6        OBJ       510
    X6        CONSTR1   55
    X6        CONSTR2   88
    X6        CONSTR3   621
    X6        CONSTR4   629
    X6        CONSTR5   391
    X6        CONSTR6   491
    X6        CONSTR7   624
    X6        CONSTR8   124
    X6        CONSTR9   190
    X6        CONSTR10  5
    X7        OBJ       1026
    X7        CONSTR1   32
    X7        CONSTR2   319
    X7        CONSTR3   916
    X7        CONSTR4   255
    X7        CONSTR5   387
    X7        CONSTR6   881
    X7        CONSTR7   911
    X7        CONSTR8   517
    X7        CONSTR9   669
    X7        CONSTR10  479
    X8        OBJ       687
    X8        CONSTR1   361
    X8        CONSTR2   857
    X8        CONSTR3   446
    X8        CONSTR4   636
    X8        CONSTR5   180
    X8        CONSTR6   22
    X8        CONSTR7   311
    X8        CONSTR8   339
    X8        CONSTR9   266
    X8        CONSTR10  883
    X9        OBJ       715
    X9        CONSTR1   636
    X9        CONSTR2   602
    X9        CONSTR3   881
    X9        CONSTR4   389
    X9        CONSTR5   757
    X9        CONSTR6   394
    X9        CONSTR7   480
    X9        CONSTR8   798
    X9        CONSTR9   710
    X9        CONSTR10  43
    X10       OBJ       788
    X10       CONSTR1   475
    X10       CONSTR2   482
    X10       CONSTR3   508
    X10       CONSTR4   760
    X10       CONSTR5   9
    X10       CONSTR6   734
    X10       CONSTR7   82
    X10       CONSTR8   883
    X10       CONSTR9   820
    X10       CONSTR10  218
    X11       OBJ       609
    X11       CONSTR1   944
    X11       CONSTR2   328
    X11       CONSTR3   782
    X11       CONSTR4   637
    X11       CONSTR5   42
    X11       CONSTR6   266
    X11       CONSTR7   684
    X11       CONSTR8   125
    X11       CONSTR9   742
    X11       CONSTR10  623
    X12       OBJ       750
    X12       CONSTR1   638
    X12       CONSTR2   157
    X12       CONSTR3   603
    X12       CONSTR4   745
    X12       CONSTR5   700
    X12       CONSTR6   400
    X12       CONSTR7   190
    X12       CONSTR8   389
    X12       CONSTR9   169
    X12       CONSTR10  972
    X13       OBJ       714
    X13       CONSTR1   890
    X13       CONSTR2   497
    X13       CONSTR3   679
    X13       CONSTR4   668
    X13       CONSTR5   501
    X13       CONSTR6   925
    X13       CONSTR7   761
    X13       CONSTR8   9
    X13       CONSTR9   583
    X13       CONSTR10  840
    X14       OBJ       627
    X14       CONSTR1   24
    X14       CONSTR2   868
    X14       CONSTR3   127
    X14       CONSTR4   461
    X14       CONSTR5   497
    X14       CONSTR6   700
    X14       CONSTR7   939
    X14       CONSTR8   478
    X14       CONSTR9   96
    X14       CONSTR10  811
    X15       OBJ       611
    X15       CONSTR1   971
    X15       CONSTR2   991
    X15       CONSTR3   108
    X15       CONSTR4   827
    X15       CONSTR5   272
    X15       CONSTR6   968
    X15       CONSTR7   710
    X15       CONSTR8   776
    X15       CONSTR9   286
    X15       CONSTR10  117
    X16       OBJ       868
    X16       CONSTR1   149
    X16       CONSTR2   995
    X16       CONSTR3   934
    X16       CONSTR4   250
    X16       CONSTR5   480
    X16       CONSTR6   359
    X16       CONSTR7   228
    X16       CONSTR8   481
    X16       CONSTR9   520
    X16       CONSTR10  462
    X17       OBJ       813
    X17       CONSTR1   249
    X17       CONSTR2   934
    X17       CONSTR3   762
    X17       CONSTR4   986
    X17       CONSTR5   704
    X17       CONSTR6   773
    X17       CONSTR7   424
    X17       CONSTR8   929
    X17       CONSTR9   555
    X17       CONSTR10  188
    X18       OBJ       961
    X18       CONSTR1   659
    X18       CONSTR2   262
    X18       CONSTR3   959
    X18       CONSTR4   592
    X18       CONSTR5   754
    X18       CONSTR6   293
    X18       CONSTR7   297
    X18       CONSTR8   519
    X18       CONSTR9   165
    X18       CONSTR10  933
    X19       OBJ       782
    X19       CONSTR1   722
    X19       CONSTR2   198
    X19       CONSTR3   147
    X19       CONSTR4   304
    X19       CONSTR5   929
    X19       CONSTR6   582
    X19       CONSTR7   366
    X19       CONSTR8   499
    X19       CONSTR9   187
    X19       CONSTR10  594
    X20       OBJ       668
    X20       CONSTR1   660
    X20       CONSTR2   196
    X20       CONSTR3   95
    X20       CONSTR4   862
    X20       CONSTR5   117
    X20       CONSTR6   231
    X20       CONSTR7   126
    X20       CONSTR8   599
    X20       CONSTR9   382
    X20       CONSTR10  999
    X21       OBJ       864
    X21       CONSTR1   745
    X21       CONSTR2   616
    X21       CONSTR3   587
    X21       CONSTR4   281
    X21       CONSTR5   130
    X21       CONSTR6   347
    X21       CONSTR7   978
    X21       CONSTR8   991
    X21       CONSTR9   512
    X21       CONSTR10  474
    X22       OBJ       607
    X22       CONSTR1   483
    X22       CONSTR2   246
    X22       CONSTR3   21
    X22       CONSTR4   724
    X22       CONSTR5   362
    X22       CONSTR6   462
    X22       CONSTR7   199
    X22       CONSTR8   856
    X22       CONSTR9   112
    X22       CONSTR10  276
    X23       OBJ       851
    X23       CONSTR1   805
    X23       CONSTR2   794
    X23       CONSTR3   234
    X23       CONSTR4   471
    X23       CONSTR5   935
    X23       CONSTR6   639
    X23       CONSTR7   582
    X23       CONSTR8   497
    X23       CONSTR9   428
    X23       CONSTR10  2
    X24       OBJ       512
    X24       CONSTR1   338
    X24       CONSTR2   403
    X24       CONSTR3   450
    X24       CONSTR4   552
    X24       CONSTR5   743
    X24       CONSTR6   846
    X24       CONSTR7   32
    X24       CONSTR8   296
    X24       CONSTR9   694
    X24       CONSTR10  215
    X25       OBJ       542
    X25       CONSTR1   181
    X25       CONSTR2   493
    X25       CONSTR3   959
    X25       CONSTR4   815
    X25       CONSTR5   82
    X25       CONSTR6   313
    X25       CONSTR7   422
    X25       CONSTR8   313
    X25       CONSTR9   496
    X25       CONSTR10  353
    X26       OBJ       800
    X26       CONSTR1   772
    X26       CONSTR2   30
    X26       CONSTR3   721
    X26       CONSTR4   883
    X26       CONSTR5   94
    X26       CONSTR6   167
    X26       CONSTR7   586
    X26       CONSTR8   570
    X26       CONSTR9   299
    X26       CONSTR10  864
    X27       OBJ       745
    X27       CONSTR1   904
    X27       CONSTR2   966
    X27       CONSTR3   682
    X27       CONSTR4   457
    X27       CONSTR5   371
    X27       CONSTR6   120
    X27       CONSTR7   89
    X27       CONSTR8   457
    X27       CONSTR9   418
    X27       CONSTR10  286
    X28       OBJ       521
    X28       CONSTR1   783
    X28       CONSTR2   509
    X28       CONSTR3   425
    X28       CONSTR4   700
    X28       CONSTR5   361
    X28       CONSTR6   236
    X28       CONSTR7   459
    X28       CONSTR8   407
    X28       CONSTR9   288
    X28       CONSTR10  658
    X29       OBJ       979
    X29       CONSTR1   891
    X29       CONSTR2   883
    X29       CONSTR3   37
    X29       CONSTR4   164
    X29       CONSTR5   743
    X29       CONSTR6   654
    X29       CONSTR7   574
    X29       CONSTR8   653
    X29       CONSTR9   997
    X29       CONSTR10  810
    X30       OBJ       789
    X30       CONSTR1   421
    X30       CONSTR2   795
    X30       CONSTR3   910
    X30       CONSTR4   247
    X30       CONSTR5   473
    X30       CONSTR6   692
    X30       CONSTR7   924
    X30       CONSTR8   216
    X30       CONSTR9   626
    X30       CONSTR10  643
    X31       OBJ       806
    X31       CONSTR1   133
    X31       CONSTR2   762
    X31       CONSTR3   634
    X31       CONSTR4   754
    X31       CONSTR5   655
    X31       CONSTR6   651
    X31       CONSTR7   235
    X31       CONSTR8   873
    X31       CONSTR9   933
    X31       CONSTR10  763
    X32       OBJ       781
    X32       CONSTR1   126
    X32       CONSTR2   7
    X32       CONSTR3   629
    X32       CONSTR4   136
    X32       CONSTR5   986
    X32       CONSTR6   104
    X32       CONSTR7   735
    X32       CONSTR8   768
    X32       CONSTR9   11
    X32       CONSTR10  660
    X33       OBJ       982
    X33       CONSTR1   268
    X33       CONSTR2   156
    X33       CONSTR3   506
    X33       CONSTR4   764
    X33       CONSTR5   871
    X33       CONSTR6   664
    X33       CONSTR7   674
    X33       CONSTR8   621
    X33       CONSTR9   673
    X33       CONSTR10  95
    X34       OBJ       1048
    X34       CONSTR1   857
    X34       CONSTR2   748
    X34       CONSTR3   610
    X34       CONSTR4   483
    X34       CONSTR5   446
    X34       CONSTR6   644
    X34       CONSTR7   387
    X34       CONSTR8   906
    X34       CONSTR9   767
    X34       CONSTR10  579
    X35       OBJ       950
    X35       CONSTR1   792
    X35       CONSTR2   147
    X35       CONSTR3   556
    X35       CONSTR4   301
    X35       CONSTR5   517
    X35       CONSTR6   504
    X35       CONSTR7   775
    X35       CONSTR8   742
    X35       CONSTR9   744
    X35       CONSTR10  860
    X36       OBJ       643
    X36       CONSTR1   243
    X36       CONSTR2   418
    X36       CONSTR3   610
    X36       CONSTR4   650
    X36       CONSTR5   902
    X36       CONSTR6   336
    X36       CONSTR7   671
    X36       CONSTR8   866
    X36       CONSTR9   322
    X36       CONSTR10  409
    X37       OBJ       542
    X37       CONSTR1   756
    X37       CONSTR2   91
    X37       CONSTR3   791
    X37       CONSTR4   562
    X37       CONSTR5   711
    X37       CONSTR6   590
    X37       CONSTR7   31
    X37       CONSTR8   414
    X37       CONSTR9   179
    X37       CONSTR10  944
    X38       OBJ       690
    X38       CONSTR1   485
    X38       CONSTR2   39
    X38       CONSTR3   583
    X38       CONSTR4   289
    X38       CONSTR5   451
    X38       CONSTR6   643
    X38       CONSTR7   798
    X38       CONSTR8   904
    X38       CONSTR9   654
    X38       CONSTR10  116
    X39       OBJ       373
    X39       CONSTR1   245
    X39       CONSTR2   730
    X39       CONSTR3   897
    X39       CONSTR4   137
    X39       CONSTR5   42
    X39       CONSTR6   644
    X39       CONSTR7   2
    X39       CONSTR8   187
    X39       CONSTR9   156
    X39       CONSTR10  384
    X40       OBJ       813
    X40       CONSTR1   315
    X40       CONSTR2   431
    X40       CONSTR3   189
    X40       CONSTR4   806
    X40       CONSTR5   458
    X40       CONSTR6   758
    X40       CONSTR7   640
    X40       CONSTR8   206
    X40       CONSTR9   481
    X40       CONSTR10  236
    X41       OBJ       507
    X41       CONSTR1   440
    X41       CONSTR2   465
    X41       CONSTR3   983
    X41       CONSTR4   995
    X41       CONSTR5   42
    X41       CONSTR6   27
    X41       CONSTR7   257
    X41       CONSTR8   184
    X41       CONSTR9   193
    X41       CONSTR10  637
    X42       OBJ       898
    X42       CONSTR1   94
    X42       CONSTR2   707
    X42       CONSTR3   59
    X42       CONSTR4   618
    X42       CONSTR5   450
    X42       CONSTR6   24
    X42       CONSTR7   253
    X42       CONSTR8   557
    X42       CONSTR9   888
    X42       CONSTR10  563
    X43       OBJ       738
    X43       CONSTR1   570
    X43       CONSTR2   12
    X43       CONSTR3   837
    X43       CONSTR4   121
    X43       CONSTR5   184
    X43       CONSTR6   727
    X43       CONSTR7   138
    X43       CONSTR8   125
    X43       CONSTR9   222
    X43       CONSTR10  371
    X44       OBJ       1029
    X44       CONSTR1   992
    X44       CONSTR2   690
    X44       CONSTR3   974
    X44       CONSTR4   780
    X44       CONSTR5   533
    X44       CONSTR6   36
    X44       CONSTR7   663
    X44       CONSTR8   260
    X44       CONSTR9   165
    X44       CONSTR10  723
    X45       OBJ       567
    X45       CONSTR1   114
    X45       CONSTR2   302
    X45       CONSTR3   19
    X45       CONSTR4   974
    X45       CONSTR5   563
    X45       CONSTR6   34
    X45       CONSTR7   622
    X45       CONSTR8   462
    X45       CONSTR9   848
    X45       CONSTR10  818
    X46       OBJ       497
    X46       CONSTR1   40
    X46       CONSTR2   997
    X46       CONSTR3   735
    X46       CONSTR4   438
    X46       CONSTR5   550
    X46       CONSTR6   110
    X46       CONSTR7   206
    X46       CONSTR8   527
    X46       CONSTR9   745
    X46       CONSTR10  19
    X47       OBJ       539
    X47       CONSTR1   780
    X47       CONSTR2   363
    X47       CONSTR3   275
    X47       CONSTR4   444
    X47       CONSTR5   431
    X47       CONSTR6   831
    X47       CONSTR7   365
    X47       CONSTR8   327
    X47       CONSTR9   8
    X47       CONSTR10  773
    X48       OBJ       1017
    X48       CONSTR1   834
    X48       CONSTR2   9
    X48       CONSTR3   966
    X48       CONSTR4   171
    X48       CONSTR5   654
    X48       CONSTR6   326
    X48       CONSTR7   485
    X48       CONSTR8   947
    X48       CONSTR9   487
    X48       CONSTR10  309
    X49       OBJ       976
    X49       CONSTR1   918
    X49       CONSTR2   208
    X49       CONSTR3   634
    X49       CONSTR4   813
    X49       CONSTR5   648
    X49       CONSTR6   925
    X49       CONSTR7   886
    X49       CONSTR8   739
    X49       CONSTR9   420
    X49       CONSTR10  830
    X50       OBJ       635
    X50       CONSTR1   279
    X50       CONSTR2   107
    X50       CONSTR3   641
    X50       CONSTR4   362
    X50       CONSTR5   474
    X50       CONSTR6   378
    X50       CONSTR7   271
    X50       CONSTR8   239
    X50       CONSTR9   824
    X50       CONSTR10  640
    X51       OBJ       858
    X51       CONSTR1   35
    X51       CONSTR2   73
    X51       CONSTR3   119
    X51       CONSTR4   193
    X51       CONSTR5   841
    X51       CONSTR6   974
    X51       CONSTR7   964
    X51       CONSTR8   667
    X51       CONSTR9   376
    X51       CONSTR10  709
    X52       OBJ       732
    X52       CONSTR1   789
    X52       CONSTR2   649
    X52       CONSTR3   896
    X52       CONSTR4   687
    X52       CONSTR5   730
    X52       CONSTR6   17
    X52       CONSTR7   147
    X52       CONSTR8   765
    X52       CONSTR9   983
    X52       CONSTR10  651
    X53       OBJ       853
    X53       CONSTR1   442
    X53       CONSTR2   877
    X53       CONSTR3   873
    X53       CONSTR4   308
    X53       CONSTR5   748
    X53       CONSTR6   835
    X53       CONSTR7   564
    X53       CONSTR8   336
    X53       CONSTR9   649
    X53       CONSTR10  634
    X54       OBJ       694
    X54       CONSTR1   430
    X54       CONSTR2   561
    X54       CONSTR3   762
    X54       CONSTR4   979
    X54       CONSTR5   793
    X54       CONSTR6   297
    X54       CONSTR7   135
    X54       CONSTR8   117
    X54       CONSTR9   625
    X54       CONSTR10  860
    X55       OBJ       650
    X55       CONSTR1   812
    X55       CONSTR2   17
    X55       CONSTR3   285
    X55       CONSTR4   160
    X55       CONSTR5   79
    X55       CONSTR6   579
    X55       CONSTR7   836
    X55       CONSTR8   659
    X55       CONSTR9   890
    X55       CONSTR10  619
    X56       OBJ       904
    X56       CONSTR1   212
    X56       CONSTR2   604
    X56       CONSTR3   919
    X56       CONSTR4   460
    X56       CONSTR5   82
    X56       CONSTR6   239
    X56       CONSTR7   493
    X56       CONSTR8   979
    X56       CONSTR9   360
    X56       CONSTR10  839
    X57       OBJ       745
    X57       CONSTR1   560
    X57       CONSTR2   65
    X57       CONSTR3   62
    X57       CONSTR4   436
    X57       CONSTR5   819
    X57       CONSTR6   268
    X57       CONSTR7   814
    X57       CONSTR8   632
    X57       CONSTR9   925
    X57       CONSTR10  794
    X58       OBJ       853
    X58       CONSTR1   32
    X58       CONSTR2   375
    X58       CONSTR3   191
    X58       CONSTR4   795
    X58       CONSTR5   645
    X58       CONSTR6   231
    X58       CONSTR7   290
    X58       CONSTR8   921
    X58       CONSTR9   804
    X58       CONSTR10  676
    X59       OBJ       635
    X59       CONSTR1   362
    X59       CONSTR2   11
    X59       CONSTR3   892
    X59       CONSTR4   1000
    X59       CONSTR5   270
    X59       CONSTR6   964
    X59       CONSTR7   216
    X59       CONSTR8   739
    X59       CONSTR9   598
    X59       CONSTR10  136
    X60       OBJ       825
    X60       CONSTR1   937
    X60       CONSTR2   493
    X60       CONSTR3   539
    X60       CONSTR4   496
    X60       CONSTR5   743
    X60       CONSTR6   736
    X60       CONSTR7   48
    X60       CONSTR8   246
    X60       CONSTR9   552
    X60       CONSTR10  224
    X61       OBJ       818
    X61       CONSTR1   627
    X61       CONSTR2   261
    X61       CONSTR3   556
    X61       CONSTR4   886
    X61       CONSTR5   18
    X61       CONSTR6   405
    X61       CONSTR7   356
    X61       CONSTR8   48
    X61       CONSTR9   939
    X61       CONSTR10  789
    X62       OBJ       952
    X62       CONSTR1   537
    X62       CONSTR2   615
    X62       CONSTR3   976
    X62       CONSTR4   827
    X62       CONSTR5   184
    X62       CONSTR6   367
    X62       CONSTR7   520
    X62       CONSTR8   193
    X62       CONSTR9   683
    X62       CONSTR10  762
    X63       OBJ       908
    X63       CONSTR1   939
    X63       CONSTR2   253
    X63       CONSTR3   625
    X63       CONSTR4   708
    X63       CONSTR5   297
    X63       CONSTR6   287
    X63       CONSTR7   977
    X63       CONSTR8   111
    X63       CONSTR9   169
    X63       CONSTR10  534
    X64       OBJ       779
    X64       CONSTR1   145
    X64       CONSTR2   735
    X64       CONSTR3   898
    X64       CONSTR4   849
    X64       CONSTR5   381
    X64       CONSTR6   455
    X64       CONSTR7   251
    X64       CONSTR8   80
    X64       CONSTR9   772
    X64       CONSTR10  48
    X65       OBJ       762
    X65       CONSTR1   562
    X65       CONSTR2   61
    X65       CONSTR3   157
    X65       CONSTR4   136
    X65       CONSTR5   502
    X65       CONSTR6   85
    X65       CONSTR7   938
    X65       CONSTR8   606
    X65       CONSTR9   424
    X65       CONSTR10  308
    X66       OBJ       583
    X66       CONSTR1   388
    X66       CONSTR2   712
    X66       CONSTR3   451
    X66       CONSTR4   666
    X66       CONSTR5   76
    X66       CONSTR6   198
    X66       CONSTR7   613
    X66       CONSTR8   78
    X66       CONSTR9   93
    X66       CONSTR10  817
    X67       OBJ       415
    X67       CONSTR1   644
    X67       CONSTR2   339
    X67       CONSTR3   750
    X67       CONSTR4   349
    X67       CONSTR5   222
    X67       CONSTR6   746
    X67       CONSTR7   352
    X67       CONSTR8   180
    X67       CONSTR9   284
    X67       CONSTR10  39
    X68       OBJ       1007
    X68       CONSTR1   25
    X68       CONSTR2   592
    X68       CONSTR3   496
    X68       CONSTR4   212
    X68       CONSTR5   367
    X68       CONSTR6   682
    X68       CONSTR7   936
    X68       CONSTR8   966
    X68       CONSTR9   845
    X68       CONSTR10  899
    X69       OBJ       487
    X69       CONSTR1   895
    X69       CONSTR2   824
    X69       CONSTR3   396
    X69       CONSTR4   801
    X69       CONSTR5   2
    X69       CONSTR6   140
    X69       CONSTR7   501
    X69       CONSTR8   8
    X69       CONSTR9   803
    X69       CONSTR10  332
    X70       OBJ       567
    X70       CONSTR1   931
    X70       CONSTR2   596
    X70       CONSTR3   365
    X70       CONSTR4   777
    X70       CONSTR5   747
    X70       CONSTR6   582
    X70       CONSTR7   102
    X70       CONSTR8   501
    X70       CONSTR9   654
    X70       CONSTR10  178
    X71       OBJ       472
    X71       CONSTR1   21
    X71       CONSTR2   594
    X71       CONSTR3   359
    X71       CONSTR4   22
    X71       CONSTR5   992
    X71       CONSTR6   928
    X71       CONSTR7   857
    X71       CONSTR8   87
    X71       CONSTR9   295
    X71       CONSTR10  23
    X72       OBJ       657
    X72       CONSTR1   171
    X72       CONSTR2   362
    X72       CONSTR3   302
    X72       CONSTR4   233
    X72       CONSTR5   200
    X72       CONSTR6   911
    X72       CONSTR7   567
    X72       CONSTR8   623
    X72       CONSTR9   28
    X72       CONSTR10  736
    X73       OBJ       627
    X73       CONSTR1   151
    X73       CONSTR2   798
    X73       CONSTR3   837
    X73       CONSTR4   516
    X73       CONSTR5   733
    X73       CONSTR6   14
    X73       CONSTR7   47
    X73       CONSTR8   194
    X73       CONSTR9   622
    X73       CONSTR10  563
    X74       OBJ       633
    X74       CONSTR1   744
    X74       CONSTR2   57
    X74       CONSTR3   533
    X74       CONSTR4   743
    X74       CONSTR5   21
    X74       CONSTR6   243
    X74       CONSTR7   872
    X74       CONSTR8   142
    X74       CONSTR9   403
    X74       CONSTR10  994
    X75       OBJ       690
    X75       CONSTR1   858
    X75       CONSTR2   368
    X75       CONSTR3   568
    X75       CONSTR4   922
    X75       CONSTR5   24
    X75       CONSTR6   617
    X75       CONSTR7   80
    X75       CONSTR8   423
    X75       CONSTR9   580
    X75       CONSTR10  40
    X76       OBJ       494
    X76       CONSTR1   103
    X76       CONSTR2   619
    X76       CONSTR3   476
    X76       CONSTR4   63
    X76       CONSTR5   469
    X76       CONSTR6   926
    X76       CONSTR7   534
    X76       CONSTR8   497
    X76       CONSTR9   358
    X76       CONSTR10  5
    X77       OBJ       627
    X77       CONSTR1   263
    X77       CONSTR2   452
    X77       CONSTR3   723
    X77       CONSTR4   407
    X77       CONSTR5   690
    X77       CONSTR6   43
    X77       CONSTR7   122
    X77       CONSTR8   29
    X77       CONSTR9   647
    X77       CONSTR10  636
    X78       OBJ       1117
    X78       CONSTR1   766
    X78       CONSTR2   274
    X78       CONSTR3   849
    X78       CONSTR4   483
    X78       CONSTR5   541
    X78       CONSTR6   728
    X78       CONSTR7   505
    X78       CONSTR8   878
    X78       CONSTR9   983
    X78       CONSTR10  751
    X79       OBJ       735
    X79       CONSTR1   606
    X79       CONSTR2   619
    X79       CONSTR3   473
    X79       CONSTR4   238
    X79       CONSTR5   906
    X79       CONSTR6   741
    X79       CONSTR7   424
    X79       CONSTR8   668
    X79       CONSTR9   547
    X79       CONSTR10  129
    X80       OBJ       997
    X80       CONSTR1   722
    X80       CONSTR2   729
    X80       CONSTR3   351
    X80       CONSTR4   355
    X80       CONSTR5   524
    X80       CONSTR6   939
    X80       CONSTR7   458
    X80       CONSTR8   824
    X80       CONSTR9   56
    X80       CONSTR10  829
    X81       OBJ       728
    X81       CONSTR1   555
    X81       CONSTR2   638
    X81       CONSTR3   616
    X81       CONSTR4   296
    X81       CONSTR5   413
    X81       CONSTR6   147
    X81       CONSTR7   359
    X81       CONSTR8   930
    X81       CONSTR9   110
    X81       CONSTR10  667
    X82       OBJ       925
    X82       CONSTR1   863
    X82       CONSTR2   979
    X82       CONSTR3   222
    X82       CONSTR4   820
    X82       CONSTR5   219
    X82       CONSTR6   823
    X82       CONSTR7   299
    X82       CONSTR8   797
    X82       CONSTR9   895
    X82       CONSTR10  502
    X83       OBJ       863
    X83       CONSTR1   47
    X83       CONSTR2   611
    X83       CONSTR3   820
    X83       CONSTR4   206
    X83       CONSTR5   968
    X83       CONSTR6   328
    X83       CONSTR7   639
    X83       CONSTR8   236
    X83       CONSTR9   713
    X83       CONSTR10  558
    X84       OBJ       556
    X84       CONSTR1   599
    X84       CONSTR2   807
    X84       CONSTR3   985
    X84       CONSTR4   432
    X84       CONSTR5   405
    X84       CONSTR6   424
    X84       CONSTR7   428
    X84       CONSTR8   621
    X84       CONSTR9   114
    X84       CONSTR10  225
    X85       OBJ       625
    X85       CONSTR1   270
    X85       CONSTR2   192
    X85       CONSTR3   57
    X85       CONSTR4   340
    X85       CONSTR5   517
    X85       CONSTR6   492
    X85       CONSTR7   260
    X85       CONSTR8   986
    X85       CONSTR9   628
    X85       CONSTR10  272
    X86       OBJ       1024
    X86       CONSTR1   596
    X86       CONSTR2   663
    X86       CONSTR3   456
    X86       CONSTR4   970
    X86       CONSTR5   423
    X86       CONSTR6   994
    X86       CONSTR7   596
    X86       CONSTR8   39
    X86       CONSTR9   941
    X86       CONSTR10  446
    X87       OBJ       813
    X87       CONSTR1   802
    X87       CONSTR2   129
    X87       CONSTR3   956
    X87       CONSTR4   1000
    X87       CONSTR5   129
    X87       CONSTR6   958
    X87       CONSTR7   227
    X87       CONSTR8   257
    X87       CONSTR9   191
    X87       CONSTR10  750
    X88       OBJ       603
    X88       CONSTR1   232
    X88       CONSTR2   822
    X88       CONSTR3   315
    X88       CONSTR4   13
    X88       CONSTR5   194
    X88       CONSTR6   677
    X88       CONSTR7   53
    X88       CONSTR8   216
    X88       CONSTR9   883
    X88       CONSTR10  127
    X89       OBJ       835
    X89       CONSTR1   273
    X89       CONSTR2   885
    X89       CONSTR3   81
    X89       CONSTR4   167
    X89       CONSTR5   918
    X89       CONSTR6   940
    X89       CONSTR7   487
    X89       CONSTR8   858
    X89       CONSTR9   936
    X89       CONSTR10  900
    X90       OBJ       614
    X90       CONSTR1   94
    X90       CONSTR2   609
    X90       CONSTR3   469
    X90       CONSTR4   187
    X90       CONSTR5   226
    X90       CONSTR6   20
    X90       CONSTR7   727
    X90       CONSTR8   235
    X90       CONSTR9   863
    X90       CONSTR10  250
    X91       OBJ       958
    X91       CONSTR1   405
    X91       CONSTR2   396
    X91       CONSTR3   261
    X91       CONSTR4   386
    X91       CONSTR5   736
    X91       CONSTR6   441
    X91       CONSTR7   139
    X91       CONSTR8   956
    X91       CONSTR9   387
    X91       CONSTR10  494
    X92       OBJ       899
    X92       CONSTR1   466
    X92       CONSTR2   964
    X92       CONSTR3   50
    X92       CONSTR4   769
    X92       CONSTR5   584
    X92       CONSTR6   758
    X92       CONSTR7   383
    X92       CONSTR8   661
    X92       CONSTR9   256
    X92       CONSTR10  380
    X93       OBJ       896
    X93       CONSTR1   611
    X93       CONSTR2   732
    X93       CONSTR3   258
    X93       CONSTR4   891
    X93       CONSTR5   731
    X93       CONSTR6   677
    X93       CONSTR7   757
    X93       CONSTR8   624
    X93       CONSTR9   985
    X93       CONSTR10  716
    X94       OBJ       786
    X94       CONSTR1   223
    X94       CONSTR2   908
    X94       CONSTR3   778
    X94       CONSTR4   429
    X94       CONSTR5   261
    X94       CONSTR6   974
    X94       CONSTR7   447
    X94       CONSTR8   173
    X94       CONSTR9   636
    X94       CONSTR10  218
    X95       OBJ       1155
    X95       CONSTR1   727
    X95       CONSTR2   520
    X95       CONSTR3   852
    X95       CONSTR4   965
    X95       CONSTR5   988
    X95       CONSTR6   150
    X95       CONSTR7   902
    X95       CONSTR8   896
    X95       CONSTR9   105
    X95       CONSTR10  857
    X96       OBJ       585
    X96       CONSTR1   995
    X96       CONSTR2   781
    X96       CONSTR3   668
    X96       CONSTR4   375
    X96       CONSTR5   43
    X96       CONSTR6   144
    X96       CONSTR7   617
    X96       CONSTR8   240
    X96       CONSTR9   499
    X96       CONSTR10  730
    X97       OBJ       517
    X97       CONSTR1   924
    X97       CONSTR2   870
    X97       CONSTR3   507
    X97       CONSTR4   545
    X97       CONSTR5   390
    X97       CONSTR6   948
    X97       CONSTR7   16
    X97       CONSTR8   321
    X97       CONSTR9   155
    X97       CONSTR10  328
    X98       OBJ       942
    X98       CONSTR1   879
    X98       CONSTR2   411
    X98       CONSTR3   433
    X98       CONSTR4   599
    X98       CONSTR5   662
    X98       CONSTR6   659
    X98       CONSTR7   881
    X98       CONSTR8   795
    X98       CONSTR9   316
    X98       CONSTR10  446
    X99       OBJ       761
    X99       CONSTR1   191
    X99       CONSTR2   77
    X99       CONSTR3   285
    X99       CONSTR4   550
    X99       CONSTR5   658
    X99       CONSTR6   643
    X99       CONSTR7   252
    X99       CONSTR8   198
    X99       CONSTR9   696
    X99       CONSTR10  372
    X100      OBJ       837
    X100      CONSTR1   445
    X100      CONSTR2   540
    X100      CONSTR3   482
    X100      CONSTR4   34
    X100      CONSTR5   931
    X100      CONSTR6   932
    X100      CONSTR7   392
    X100      CONSTR8   425
    X100      CONSTR9   861
    X100      CONSTR10  962
    INT0001   'MARKER'  'INTEND'
RHS
    RHS10001  CONSTR1   25015
    RHS10001  CONSTR2   24701
    RHS10001  CONSTR3   27636
    RHS10001  CONSTR4   25693
    RHS10001  CONSTR5   23518
    RHS10001  CONSTR6   25416
    RHS10001  CONSTR7   22952
    RHS10001  CONSTR8   24601
    RHS10001  CONSTR9   25554
    RHS10001  CONSTR10  25478
BOUNDS
 BV BND       X1        .00
 BV BND       X2        .00
 BV BND       X3        .00
 BV BND       X4        .00
 BV BND       X5        .00
 BV BND       X6        .00
 BV BND       X7        .00
 BV BND       X8        .00
 BV BND       X9        .00
 BV BND       X10       .00
 BV BND       X11       .00
 BV BND       X12       .00
 BV BND       X13       .00
 BV BND       X14       .00
 BV BND       X15       .00
 BV BND       X16       .00
 BV BND       X17       .00
 BV BND       X18       .00
 BV BND       X19       .00
 BV BND       X20       .00
 BV BND       X21       .00
 BV BND       X22       .00
 BV BND       X23       .00
 BV BND       X24       .00
 BV BND       X25       .00
 BV BND       X26       .00
 BV BND       X27       .00
 BV BND       X28       .00
 BV BND       X29       .00
 BV BND       X30       .00
 BV BND       X31       .00
 BV BND       X32       .00
 BV BND       X33       .00
 BV BND       X34       .00
 BV BND       X35       .00
 BV BND       X36       .00
 BV BND       X37       .00
 BV BND       X38       .00
 BV BND       X39       .00
 BV BND       X40       .00
 BV BND       X41       .00
 BV BND       X42       .00
 BV BND       X43       .00
 BV BND       X44       .00
 BV BND       X45       .00
 BV BND       X46       .00
 BV BND       X47       .00
 BV BND       X48       .00
 BV BND       X49       .00
 BV BND       X50       .00
 BV BND       X51       .00
 BV BND       X52       .00
 BV BND       X53       .00
 BV BND       X54       .00
 BV BND       X55       .00
 BV BND       X56       .00
 BV BND       X57       .00
 BV BND       X58       .00
 BV BND       X59       .00
 BV BND       X60       .00
 BV BND       X61       .00
 BV BND       X62       .00
 BV BND       X63       .00
 BV BND       X64       .00
 BV BND       X65       .00
 BV BND       X66       .00
 BV BND       X67       .00
 BV BND       X68       .00
 BV BND       X69       .00
 BV BND       X70       .00
 BV BND       X71       .00
 BV BND       X72       .00
 BV BND       X73       .00
 BV BND       X74       .00
 BV BND       X75       .00
 BV BND       X76       .00
 BV BND       X77       .00
 BV BND       X78       .00
 BV BND       X79       .00
 BV BND       X80       .00
 BV BND       X81       .00
 BV BND       X82       .00
 BV BND       X83       .00
 BV BND       X84       .00
 BV BND       X85       .00
 BV BND       X86       .00
 BV BND       X87       .00
 BV BND       X88       .00
 BV BND       X89       .00
 BV BND       X90       .00
 BV BND       X91       .00
 BV BND       X92       .00
 BV BND       X93       .00
 BV BND       X94       .00
 BV BND       X95       .00
 BV BND       X96       .00
 BV BND       X97       .00
 BV BND       X98       .00
 BV BND       X99       .00
 BV BND       X100      .00
ENDATA
